NAME : amz1535.106461_106461.tour
COMMENT : Cost = 106461_106461
COMMENT : Found by LKH-AMZ [Keld Helsgaun] Sun May 11 14:55:00 2025
COMMENT : TW viol.: 0 #: 0
TYPE : TOUR
DIMENSION : 146
TOUR_SECTION
88
48
77
22
33
16
4
70
73
15
40
133
80
41
72
98
123
51
138
101
50
139
12
52
31
66
8
116
126
26
34
90
18
56
135
89
32
61
109
110
99
95
104
130
59
63
44
122
45
142
91
2
10
128
125
93
111
35
74
23
79
36
37
58
5
87
57
30
6
65
42
17
9
107
84
55
20
29
132
97
124
46
28
137
21
76
54
134
81
108
75
117
146
7
105
27
119
60
67
62
25
82
143
136
39
115
100
49
127
38
129
47
120
106
83
64
1
68
53
13
43
121
14
19
24
94
102
144
118
113
141
112
131
85
140
69
114
145
78
71
96
3
86
92
103
11
-1
EOF
